2049 228
8770 2563
9944 8678
9999 9667
9523 4106
7555 3396
6182 3639
832 2851
4073 52
6835 8076
7762 7950
9804 7798
2384 898
7255 5086
483 6050
4234 6205
6562 9799
9230 6656
2018 3635
9166 5494
2345 9015
4013 4732
3756 8810
4391 4885
6179 8487
948 6198
6686 2308
1460 9512
1931 1174
5575 13
3583 2814
8979 3968
3322 6501
4565 7432
4756 7036
4437 6779
4001 5001
6004 888
9281 8463
5812 8531
2534 130
7225 1099
7684 7379
2128 1809
1314 381
9823 2113
4999 8767
8171 2579
2414 6535
204 528
